20
1 9
1 13
1 14
1 15
2 13
2 14
2 17
3 6
3 9
3 10
3 13
3 16
4 6
5 7
5 8
5 11
5 18
6 13
6 14
6 15
7 9
7 10
7 11
7 18
8 16
9 11
9 12
9 15
9 18
10 11
10 12
10 16
10 19
10 20
11 12
11 13
11 14
11 17
11 20
12 13
12 18
13 14
13 15
13 17
13 18
14 19
15 16
15 18
16 17
16 18
16 19
17 18
17 19
17 20
18 19
18 20
19 20
